r = [
0,34,29,17,7,37,33,18,16,15,41,29,2,34,16,1,15,7,1,32,24,21,13,35,5,13,0
];
p = [
0,26,23,9,29,5,6,4,28,18,22,3,12,28,28,18,8,23,25,10,10,19,11,29,20,12,0
];
e = [
0,10,6,15,5,18,14,6,10,15,20,2,10,10,3,20,12,13,11,15,14,15,20,14,1,16,0
];
d = [
0,423,397,415,383,423,416,420,417,391,410,424,402,431,402,390,406,377,386,405,421,407,384,403,389,390,434
];
d_bar = [
0,426,399,416,386,424,417,421,420,393,412,425,403,434,405,392,407,379,389,406,422,409,385,406,391,391,434
];
w = [
0,3.333333333,3,15,1.666666667,18,14,6,3.333333333,7.5,10,2,10,3.333333333,1,10,12,6.5,3.666666667,15,14,7.5,20,4.666666667,0.5,16,0
];
